(set-info :smt-lib-version 2.6)
(set-logic QF_UFNIRA)
(set-info :source |
Generated by: Geoff Sutcliffe
Generated on: 2026-03-11
Generator: TPTPWorld
Application: Benchmarking automated theorem provers
Time limit: 120.0

These benchmarks are translations from the TPTP Library (Thousands of
Problems for Theorem Provers), see http://www.cs.miami.edu/~tptp/

The TPTP is maintained by Geoff Sutcliffe, and he contributed this
selection of benchmarks to SMT-LIB.  They were exported from the
v9.2.1 realease of TPTP.
|)
(set-info :category "industrial")
(set-info :status "unknown")
; SZS status Success
(declare-sort $$unsorted 0)
(declare-fun tptp.m () Real)
(declare-fun tptp.x () Real)
(declare-fun tptp.a () Real)
(declare-fun tptp.b () Real)
(assert (< tptp.a tptp.b))
(assert (> tptp.x tptp.a))
(assert (let ((_let_1 (* (- 1.0) tptp.a))) (>= tptp.m (- (to_int (- (* (/ 1.0 (+ _let_1 tptp.x)) (+ _let_1 tptp.b))))))))
(assert (not (< (+ tptp.a (* (/ 1.0 (+ 1.0 tptp.m)) (+ (* (- 1.0) tptp.a) tptp.b))) tptp.x)))
(check-sat)
